198445
9,43,58,65,57,75,23,101,73,13,46,60,102,3,14,90,78,42,74,31,62,6,52,83,32,81,71,44,24,63,45,76,5,39,55,19,15,89,20,16,85,61,21,99,98,68,87,12,30,64,51,4,54,28,29,97,105,96,7,67,18,41,80,49,25,33,82,56,79,92,11,22,91,8,1,48,36,38,72,47,84,69,93,77,2,100,37,103,66,40,10,94,53,70,35,95,50,34,88,104,59,17,0,86,27,26